1	1	1	1	4	5	0	0	0	0	0	0
1400	1	0	0	0	0	0	0	0	0	0	0
175	1	0	77.75	3.47	1	0	0	0	0	0	0
50	150	0	0	0	0	9999	0	0	99999	0	0
50	75	0	0	0	0	9999	0	0	99999	0	0
50	75	0	0	0	0	9999	0	0	0	0	0
10	28	0	0	0	0	9999	0	0	0	0	0
39	26	0	0	0	0	9999	0	0	0	0	0
61	14	0	0	0	0	9999	0	0	0	0	0
5	35	10	1	9	2055	2637	90	0	0	0	0
44	5	20	2	18	1543	2161	90	0	0	0	0
32	20	10	6	4	794	1316	90	0	0	0	0
72	45	10	6	4	1520	2070	90	0	0	0	0
45	65	20	14	6	1049	1671	90	0	0	0	0

